NAME : u1060.opt.tour
COMMENT : Tour result for u1060.tsp (cost = 225408)
TYPE : TOUR
DIMENSION : 1060
TOUR_SECTION
587
588
570
571
569
589
590
591
695
694
693
692
691
704
705
703
702
706
707
708
722
721
720
709
710
711
712
713
714
715
719
718
717
716
678
679
677
676
680
681
682
690
689
688
687
686
685
684
683
671
675
674
672
673
633
634
635
669
643
642
662
661
660
663
658
665
664
668
670
667
666
656
657
655
659
654
653
652
651
650
648
649
647
645
644
641
640
646
639
638
637
636
631
630
629
632
628
627
625
626
622
621
619
620
623
624
618
617
616
615
614
613
612
611
610
606
608
609
607
604
605
603
602
601
437
438
436
434
435
433
432
431
430
429
428
402
401
403
400
399
398
397
396
395
394
393
392
391
274
275
389
390
276
277
269
273
270
271
272
268
278
279
280
281
374
282
283
284
285
286
311
310
312
287
288
289
292
291
290
293
294
295
296
297
299
300
298
301
303
304
309
313
314
315
308
307
316
317
816
817
815
814
818
821
820
819
839
841
845
846
844
843
842
840
243
241
242
244
245
246
240
247
248
249
251
250
252
253
255
254
266
267
264
265
256
257
258
263
262
261
260
259
200
198
197
196
194
195
199
204
203
202
201
207
208
209
217
218
219
220
858
857
860
859
222
221
223
224
232
233
234
235
236
239
238
237
231
230
228
229
853
854
227
226
225
856
855
852
847
848
849
850
851
923
924
925
926
927
899
898
897
896
894
895
901
900
902
903
904
906
905
907
908
912
913
914
915
916
917
918
920
922
921
919
861
862
863
864
865
866
911
910
909
869
868
867
215
216
214
213
212
211
210
206
205
193
192
191
190
189
188
187
185
186
184
183
182
181
180
179
178
177
176
175
174
173
172
171
170
169
168
167
164
163
162
161
159
157
158
160
166
165
156
155
154
153
152
151
150
149
148
147
146
145
144
143
142
141
140
139
138
133
134
135
136
137
127
126
125
124
129
128
130
131
132
114
888
112
113
115
116
120
121
118
119
117
111
109
110
889
883
884
886
887
885
877
876
875
879
878
874
873
870
871
872
880
881
882
893
891
890
892
95
96
97
108
103
104
107
106
105
15
123
122
9
8
7
6
5
2
3
1
4
1060
1059
1058
1057
1056
1055
1052
1051
1054
1053
10
11
31
30
12
13
14
16
18
17
19
20
21
22
23
84
85
86
87
100
101
102
98
99
94
93
91
90
89
92
88
83
47
48
46
49
50
45
44
43
51
52
53
54
39
38
40
42
41
35
36
34
33
25
24
26
27
28
29
32
1050
1043
1044
1042
1047
1049
1048
1046
1045
1041
1040
1039
37
1034
1035
1036
1038
1037
1031
1032
1033
57
56
58
59
55
61
60
62
63
66
65
64
1029
1030
1026
1022
1025
1024
1023
1006
1004
1005
1007
1010
1011
1020
1021
1027
1028
1019
1018
1017
1016
1013
1015
1014
1012
1001
1000
1002
1009
1008
1003
999
998
997
996
995
994
993
992
991
989
988
987
990
986
985
983
984
980
981
982
974
973
972
970
971
975
976
977
978
979
68
67
69
70
71
72
73
74
75
76
77
81
82
78
79
80
958
959
957
960
961
962
963
965
964
949
950
956
955
951
954
952
953
928
930
931
929
932
933
934
947
946
945
948
966
969
968
967
943
944
942
941
940
936
935
938
937
939
838
836
837
835
822
823
824
834
833
827
828
829
832
830
831
826
825
809
808
806
807
810
811
812
813
334
332
331
333
335
336
337
338
341
340
339
328
329
330
325
324
323
322
318
306
319
305
302
320
321
326
327
351
350
352
354
353
363
364
365
370
371
372
373
375
376
377
378
379
380
381
382
383
384
385
386
387
388
406
405
404
407
408
409
410
411
412
421
422
420
413
415
414
419
416
417
418
427
426
425
424
423
464
463
462
459
456
457
458
450
449
447
448
442
441
440
439
443
444
445
600
599
446
451
452
598
597
596
594
593
592
595
453
454
455
559
558
560
561
557
562
563
564
565
566
567
568
572
573
574
575
576
579
577
578
736
737
738
545
546
547
548
549
540
541
542
544
543
538
537
536
539
534
535
533
532
526
479
528
527
531
530
529
550
551
552
553
554
555
556
460
461
465
467
468
469
471
470
466
473
474
472
475
476
477
478
480
481
482
483
496
497
503
504
518
520
519
525
524
523
522
521
516
515
517
514
505
512
513
506
511
510
509
508
507
499
500
501
502
498
495
494
493
491
492
484
485
486
487
488
489
490
368
369
367
366
359
360
361
362
358
357
356
355
349
345
346
348
347
344
342
343
805
804
803
802
801
800
799
797
798
796
795
794
793
792
791
790
789
788
782
783
787
786
785
784
781
780
779
775
774
773
772
771
776
778
777
768
770
769
767
766
765
764
763
762
761
760
759
758
757
756
755
754
753
752
751
750
749
748
747
746
745
744
743
742
741
740
739
735
734
733
732
730
731
729
728
727
726
725
724
723
700
699
701
696
697
698
582
583
581
580
585
584
586
-1
EOF